p tw 66 130
0 1
0 2
0 13
0 14
1 2
1 36
2 36
3 4
3 5
3 46
4 5
4 9
4 10
5 46
6 7
6 8
6 18
6 52
7 8
7 11
7 12
8 30
8 31
9 10
9 45
9 46
10 54
10 60
11 12
11 35
11 52
12 30
12 61
13 14
13 32
13 39
14 36
14 38
15 16
15 17
15 51
15 65
16 17
16 34
16 55
17 50
17 62
18 19
18 20
18 52
19 20
19 34
19 35
20 55
20 62
21 22
21 23
21 47
21 48
22 23
22 44
22 56
23 61
23 64
24 25
24 26
24 43
24 44
25 26
25 32
25 33
26 47
26 56
27 28
27 29
27 41
27 59
28 29
28 49
28 57
29 40
29 58
30 31
30 61
31 48
31 64
32 33
32 39
33 37
33 43
34 35
34 55
35 52
36 38
37 38
37 39
37 43
38 39
40 41
40 42
40 58
41 42
41 59
42 60
42 63
43 44
44 56
45 46
45 53
45 54
47 48
47 56
48 64
49 50
49 51
49 57
50 51
50 62
51 65
53 54
53 59
53 63
54 60
55 62
57 58
57 65
58 65
59 63
60 63
61 64
